
Log started (V11.0.0) Sat May 24 04:04:18 2008

Tried aggregator 1 time.
Reduced MIP has 530 rows, 15001 columns, and 30030 nonzeros.
Presolve time =    0.11 sec.
Clique table members: 500.
MIP emphasis: balance optimality and feasibility.
MIP search method: dynamic search.
Parallel mode: none, using 1 thread.
Root relaxation solution time =    0.99 sec.

        Nodes                                         Cuts/
   Node  Left     Objective  IInf  Best Integer     Best Node    ItCnt     Gap

*     0+    0                       525644.0000    16713.2533      814   96.82%
*     0+    0                        17073.0000    16713.2533      814    2.11%
      0     0    16730.5261    58    17073.0000      Fract: 5      930    2.01%
*     0+    0                        17062.0000    16730.5261      930    1.94%
      0     0    16743.5828    61    17062.0000   Flowcuts: 1     1088    1.87%
      0     0    16743.5897    66    17062.0000       Cuts: 3     1106    1.87%
      0     0    16743.6179    66    17062.0000   Flowcuts: 2     1119    1.87%
*     0+    0                        17053.0000    16743.6179     1119    1.81%
*     0+    0                        17051.0000    16743.6179     1119    1.80%
*     0+    0                        17044.0000    16743.6179     1119    1.76%
      0     2    16743.6179    66    17044.0000    16743.6179     1119    1.76%
    100   102    16743.9757    64    17044.0000    16743.6216     1714    1.76%
    200   174    16767.7443    62    17044.0000    16743.6216     2434    1.76%
    300   274    16768.1426    62    17044.0000    16743.6216     2788    1.76%
    400   374    16770.6695    61    17044.0000    16743.6216     3115    1.76%
    500   474    16771.0806    60    17044.0000    16743.6216     3517    1.76%
    600   498    16893.4074    98    17044.0000    16892.5395     9634    0.89%
    700   522    16893.8449    88    17044.0000    16892.5395    11514    0.89%
    800   556    16893.8743    82    17044.0000    16892.5395    12106    0.89%
    900   591    16893.9690    88    17044.0000    16892.5395    12473    0.89%
   1000   623    16913.1541    84    17044.0000    16892.5395    13964    0.89%
Elapsed time = 192.28 sec. (tree size =  7.10 MB, solutions = 6)
   1100   651    16904.5900    85    17044.0000    16892.5395    21022    0.89%
   1200   699    16904.7774    83    17044.0000    16892.5395    29021    0.89%
   1300   799    16904.9864    84    17044.0000    16892.5395    32204    0.89%
   1400   899    16914.8155    82    17044.0000    16892.5395    37139    0.89%
   1500   999    16905.4078    84    17044.0000    16892.5395    41298    0.89%
   1600  1099    16914.9050    77    17044.0000    16892.5395    45284    0.89%
   1700  1199    16915.1914    82    17044.0000    16892.5395    46091    0.89%
   1800  1271    16916.7026    78    17044.0000    16892.5395    47086    0.89%
   1900  1369    16936.9159    67    17044.0000    16892.5395    49260    0.89%
   2000  1469    16937.1565    65    17044.0000    16892.5395    52031    0.89%
Elapsed time = 358.88 sec. (tree size = 18.04 MB, solutions = 6)
   2100  1569    16938.3442    64    17044.0000    16892.5395    53154    0.89%
   2200  1622    16939.8618    65    17044.0000    16892.5395    54469    0.89%
   2300  1678    16940.2958    65    17044.0000    16892.5395    56051    0.89%
   2400  1778    16953.9265    64    17044.0000    16892.5395    60939    0.89%
   2500  1878    16954.3897    66    17044.0000    16892.5395    64587    0.89%
   2600  1978    16954.6860    65    17044.0000    16892.5395    67066    0.89%
   2700  2078    16971.5418    60    17044.0000    16892.5395    70958    0.89%
   2800  2178    16955.7307    66    17044.0000    16892.5395    75311    0.89%
   2900  2278    16956.1629    66    17044.0000    16892.5395    82020    0.89%
   3000  2378    16958.8515    66    17044.0000    16892.5395    88401    0.89%
Elapsed time = 469.77 sec. (tree size = 29.58 MB, solutions = 6)
   3100  2476    17008.8342    44    17044.0000    16892.5395    90474    0.89%
   3200  2563    16895.0058    87    17044.0000    16892.5521    92286    0.89%
   3300  2663    16895.2513    85    17044.0000    16892.5521    92937    0.89%
   3400  2763    16895.7229    84    17044.0000    16892.5521    93830    0.89%
   3500  2857    16905.6974    87    17044.0000    16892.5521    95205    0.89%
   3600  2957    16905.6900    81    17044.0000    16892.5521    96642    0.89%
   3700  3057    16905.7396    78    17044.0000    16892.5521    97487    0.89%
   3800  3157    16906.1623    76    17044.0000    16892.5521    98677    0.89%
   3900  3257    16906.7801    75    17044.0000    16892.5521   101139    0.89%
   4000  3357    16907.0183    78    17044.0000    16892.5521   106695    0.89%
Elapsed time = 540.89 sec. (tree size = 41.81 MB, solutions = 6)
   4100  3457    16907.6085    75    17044.0000    16892.5521   111020    0.89%
   4200  3557    16917.5071    76    17044.0000    16892.5521   116415    0.89%
   4300  3657    16908.1262    78    17044.0000    16892.5521   120461    0.89%
   4400  3757    16909.6462    78    17044.0000    16892.5521   123326    0.89%
   4500  3857    16919.7665    77    17044.0000    16892.5521   125190    0.89%
   4600  3957    16920.2356    81    17044.0000    16892.5521   128626    0.89%
   4700  4057    16920.5576    77    17044.0000    16892.5521   134558    0.89%
   4800  4157    16921.2925    77    17044.0000    16892.5521   141661    0.89%
   4900  4257    16921.5665    77    17044.0000    16892.5521   145085    0.89%
   5000  4357    16931.6602    69    17044.0000    16892.5521   149370    0.89%
Elapsed time = 667.86 sec. (tree size = 54.95 MB, solutions = 6)
   5100  4457    16931.7592    67    17044.0000    16892.5521   152693    0.89%
   5200  4557    16932.3362    68    17044.0000    16892.5521   154546    0.89%
   5300  4657    16932.6692    68    17044.0000    16892.5521   161914    0.89%
   5400  4757    16932.9774    68    17044.0000    16892.5521   170207    0.89%
   5500  4857    16933.3537    66    17044.0000    16892.5521   176541    0.89%
   5600  4957    16944.6761    76    17044.0000    16892.5521   181646    0.89%
   5700  5057    16944.7807    68    17044.0000    16892.5521   183752    0.89%
   5800  5157    16944.8554    66    17044.0000    16892.5521   187485    0.89%
   5900  5257    16945.0959    68    17044.0000    16892.5521   191648    0.89%
   6000  5357    16945.4952    65    17044.0000    16892.5521   195325    0.89%
Elapsed time = 811.52 sec. (tree size = 68.03 MB, solutions = 6)
   6100  5457    16947.2187    63    17044.0000    16892.5521   197488    0.89%
   6200  5557    16949.0361    62    17044.0000    16892.5521   199916    0.89%
   6300  5657    16949.9003    60    17044.0000    16892.5521   205891    0.89%
   6400  5757    16951.7647    57    17044.0000    16892.5521   208965    0.89%
   6500  5843    16979.6296    49    17044.0000    16892.5521   209956    0.89%
   6600  5906    16895.8777   457    17044.0000    16892.9605   258821    0.89%
   6700  6006    16906.3471   219    17044.0000    16893.0273   288400    0.89%
   6800  6106    16897.0178   260    17044.0000    16893.0460   298093    0.89%
   6900  6206    16897.6611   146    17044.0000    16893.0460   302086    0.89%
   7000  6306    16914.6919   172    17044.0000    16893.0473   312155    0.89%
Elapsed time = 1386.56 sec. (tree size = 83.40 MB, solutions = 6)
   7100  6404    16924.3613    98    17044.0000    16893.0473   314000    0.89%
   7200  6504    16918.6340   189    17044.0000    16893.0477   327794    0.89%
   7300  6604    16919.3358   109    17044.0000    16893.0477   329754    0.89%
   7400  6704    16897.4066   265    17044.0000    16893.0518   342707    0.89%
   7500  6804    16897.8898   142    17044.0000    16893.0518   347636    0.89%
   7600  6904    16897.5041   238    17044.0000    16893.0536   360752    0.89%
   7700  7004    16897.9686   138    17044.0000    16893.0536   363202    0.89%
   7800  7104    16904.6954   237    17044.0000    16893.0543   375541    0.89%
   7900  7204    16918.7120   153    17044.0000    16893.0543   379193    0.89%
   8000  7304    16897.2199   290    17044.0000    16893.0547   391956    0.89%
Elapsed time = 1783.72 sec. (tree size = 104.33 MB, solutions = 6)
   8100  7404    16904.8669   124    17044.0000    16893.0547   396114    0.89%
   8200  7504    16897.3839   267    17044.0000    16893.0552   406821    0.89%
   8300  7604    16914.6200   141    17044.0000    16893.0552   410604    0.89%
   8400  7704    16897.2920   287    17044.0000    16893.0589   421604    0.89%
   8500  7804    16897.7568   156    17044.0000    16893.0589   424227    0.89%
   8600  7904    16906.6850   259    17044.0000    16893.0629   438459    0.89%
   8700  8002    16907.5746   154    17044.0000    16893.0629   441216    0.89%
   8800  8102    16903.6178   338    17044.0000    16893.0632   454601    0.89%
   8900  8202    16904.3976   159    17044.0000    16893.0632   457089    0.89%
   9000  8302    16897.3821   338    17044.0000    16893.0637   470867    0.89%
Elapsed time = 2152.20 sec. (tree size = 126.71 MB, solutions = 6)
Began writing nodes to disk (directory ./cpxa01652 created)
   9100  8402    16898.4062   206    17044.0000    16893.0637   474553    0.89%
   9200  8502    16897.1484   310    17044.0000    16893.0734   488627    0.89%
   9300  8602    16897.8779   159    17044.0000    16893.0734   492718    0.89%
   9400  8702    16897.4427   314    17044.0000    16893.0734   507112    0.89%
   9500  8802    16898.3515   161    17044.0000    16893.0734   511226    0.89%
   9600  8902    16897.5919   319    17044.0000    16893.0763   524745    0.89%
   9700  9002    16898.2705   175    17044.0000    16893.0763   527864    0.89%
   9800  9102    16906.7316   258    17044.0000    16893.0798   543812    0.89%
   9900  9200    16907.6937   164    17044.0000    16893.0798   547298    0.89%
  10000  9300    16897.5430   308    17044.0000    16893.0832   561022    0.89%
Elapsed time = 2565.61 sec. (tree size = 150.07 MB, solutions = 6)
Nodefile size = 22.32 MB (6.90 MB after compression)
  10100  9400    16897.9232   175    17044.0000    16893.0832   563868    0.89%
  10200  9500    16897.8730   328    17044.0000    16893.0852   579310    0.89%
  10300  9600    16905.6570   182    17044.0000    16893.0852   584434    0.89%
  10400  9700    16897.4296   314    17044.0000    16893.0915   599649    0.89%
  10500  9800    16897.8290   172    17044.0000    16893.0915   601754    0.89%
  10600  9900    16897.9944   339    17044.0000    16893.1012   617154    0.89%
  10700 10000    16898.6567   199    17044.0000    16893.1012   620744    0.89%
  10800 10100    16897.5439   297    17044.0000    16893.1166   636792    0.89%
  10900 10200    16898.0092   176    17044.0000    16893.1166   639694    0.89%
  11000 10300    16897.6906   351    17044.0000    16893.1389   657904    0.89%
Elapsed time = 3022.67 sec. (tree size = 174.65 MB, solutions = 6)
Nodefile size = 47.48 MB (16.64 MB after compression)
  11100 10400    16898.9149   211    17044.0000    16893.1389   662284    0.89%
  11200 10500    16897.9683   324    17044.0000    16893.1434   679038    0.89%
  11300 10600    16898.7462   165    17044.0000    16893.1434   681810    0.89%
  11400 10700    16897.4359   328    17044.0000    16893.1437   698632    0.89%
  11500 10800    16898.0286   197    17044.0000    16893.1437   701969    0.89%
  11600 10900    16897.4216   304    17044.0000    16893.1492   720716    0.89%
  11700 11000    16898.0366   177    17044.0000    16893.1492   724308    0.89%
  11800 11100    16905.1485   323    17044.0000    16893.1543   743717    0.89%
  11900 11200    16914.3258   166    17044.0000    16893.1543   746926    0.89%
  12000 11300    16897.8359   358    17044.0000    16893.1618   766411    0.88%
Elapsed time = 3568.84 sec. (tree size = 200.38 MB, solutions = 6)
Nodefile size = 72.39 MB (31.01 MB after compression)
  12100 11400    16898.7628   167    17044.0000    16893.1618   770779    0.88%
  12200 11500    16898.1234   365    17044.0000    16893.1644   790916    0.88%
  12300 11600    16907.0079   194    17044.0000    16893.1644   795915    0.88%
  12400 11700    16898.1608   326    17044.0000    16893.1650   816008    0.88%
  12500 11800    16898.6320   141    17044.0000    16893.1650   819030    0.88%
  12600 11900    16905.1604   322    17044.0000    16893.1655   839017    0.88%
  12700 12000    16905.8052   143    17044.0000    16893.1655   843258    0.88%
  12800 12100    16898.3896   328    17044.0000    16893.1657   860901    0.88%
  12900 12200    16915.0048   130    17044.0000    16893.1657   864005    0.88%
  13000 12300    16905.1688   305    17044.0000    16893.1732   882600    0.88%
Elapsed time = 4245.17 sec. (tree size = 227.43 MB, solutions = 6)
Nodefile size = 99.48 MB (49.46 MB after compression)
  13100 12400    16906.1729   144    17044.0000    16893.1732   884861    0.88%
  13200 12500    16898.2918   287    17044.0000    16893.1737   901379    0.88%
  13300 12600    16906.0048   132    17044.0000    16893.1737   907673    0.88%
  13400 12700    16897.9872   301    17044.0000    16893.1773   924413    0.88%
  13500 12798    16898.7318   163    17044.0000    16893.1773   936048    0.88%
  13600 12894    16898.4546   342    17044.0000    16893.1823  1000557    0.88%
  13700 12994    16915.4471   125    17044.0000    16893.1823  1003475    0.88%
  13800 13094    16903.4716   312    17044.0000    16893.1832  1021416    0.88%
  13900 13194    16921.6697   148    17044.0000    16893.1832  1025496    0.88%
  14000 13294    16905.5939   290    17044.0000    16893.2011  1050352    0.88%
Elapsed time = 5060.92 sec. (tree size = 255.69 MB, solutions = 6)
Nodefile size = 128.34 MB (73.90 MB after compression)
  14100 13394    16906.7213   173    17044.0000    16893.2011  1053544    0.88%
  14200 13494    16903.3719   306    17044.0000    16893.2017  1074189    0.88%
  14300 13590    16904.2766   155    17044.0000    16893.2017  1077586    0.88%
  14400 13690    16897.7605   366    17044.0000    16893.2063  1099038    0.88%
  14500 13790    16898.5880   178    17044.0000    16893.2063  1102216    0.88%
  14600 13890    16905.9983   305    17044.0000    16893.2200  1121681    0.88%
  14700 13990    16915.2620   164    17044.0000    16893.2200  1125745    0.88%
  14800 14090    16897.8542   329    17044.0000    16893.2494  1145513    0.88%
  14900 14190    16899.0256   204    17044.0000    16893.2494  1149952    0.88%
  15000 14290    16905.6814   351    17044.0000    16893.2619  1171930    0.88%
Elapsed time = 5723.64 sec. (tree size = 284.94 MB, solutions = 6)
Nodefile size = 157.90 MB (99.90 MB after compression)
  15100 14388    16906.9194   147    17044.0000    16893.2619  1196046    0.88%
  15200 14488    16905.3339   308    17044.0000    16893.2968  1215643    0.88%
  15300 14588    16906.3976   154    17044.0000    16893.2968  1218714    0.88%
  15400 14688    16898.6914   374    17044.0000    16893.3407  1246010    0.88%
  15500 14788    16906.6379   168    17044.0000    16893.3407  1259319    0.88%
  15600 14888    16905.6235   312    17044.0000    16893.3410  1281462    0.88%
  15700 14988    16906.3150   151    17044.0000    16893.3410  1284484    0.88%
  15800 15088    16905.7867   353    17044.0000    16893.3504  1305222    0.88%
  15900 15186    16907.1491   151    17044.0000    16893.3504  1309863    0.88%
  16000 15286    16905.7736   334    17044.0000    16893.3551  1330406    0.88%
Elapsed time = 6611.59 sec. (tree size = 315.36 MB, solutions = 6)
Nodefile size = 187.47 MB (126.44 MB after compression)
  16100 15384    16906.9625   184    17044.0000    16893.3551  1351112    0.88%
  16200 15484    16905.8403   328    17044.0000    16893.3551  1375808    0.88%
  16300 15584    16913.3086   152    17044.0000    16893.3551  1379862    0.88%
  16400 15684    16905.7119   351    17044.0000    16893.3599  1400019    0.88%
  16500 15784    16906.8130   175    17044.0000    16893.3599  1403504    0.88%
  16600 15884    16906.0545   327    17044.0000    16893.3639  1422767    0.88%
  16700 15984    16907.1008   165    17044.0000    16893.3639  1426359    0.88%

Cover cuts applied:  1902
Flow cuts applied:  1
Gomory fractional cuts applied:  22

Solution pool: 6 solutions saved.

MIP - Time limit exceeded, integer feasible:  Objective = 1.7044000000e+004
Current MIP best bound = 1.6893365939e+004 (gap = 150.634, 0.88%)
Solution time = 7200.19 sec.  Iterations = 1448521  Nodes = 16793 (16076)


Incumbent solution
Variable Name           Solution Value
Cmax                      17044.000000
X_1_12                        1.000000
X_2_21                        1.000000
X_3_20                        1.000000
X_4_12                        1.000000
X_5_3                         1.000000
X_6_9                         1.000000
X_7_29                        1.000000
X_8_25                        1.000000
X_9_9                         1.000000
X_10_29                       1.000000
X_11_28                       1.000000
X_12_12                       1.000000
X_13_5                        1.000000
X_14_1                        1.000000
X_15_22                       1.000000
X_16_16                       1.000000
X_17_28                       1.000000
X_18_16                       1.000000
X_19_26                       1.000000
X_20_28                       1.000000
X_21_15                       1.000000
X_22_26                       1.000000
X_23_25                       1.000000
X_24_3                        1.000000
X_25_23                       1.000000
X_26_10                       1.000000
X_27_13                       1.000000
X_28_4                        1.000000
X_29_26                       1.000000
X_30_7                        1.000000
X_31_28                       1.000000
X_32_5                        1.000000
X_33_20                       1.000000
X_34_15                       1.000000
X_35_6                        1.000000
X_36_1                        1.000000
X_37_23                       1.000000
X_38_1                        1.000000
X_39_29                       1.000000
X_40_20                       1.000000
X_41_20                       1.000000
X_42_21                       1.000000
X_43_16                       1.000000
X_44_20                       1.000000
X_45_18                       1.000000
X_46_10                       1.000000
X_47_3                        1.000000
X_48_17                       1.000000
X_49_18                       1.000000
X_50_10                       1.000000
X_51_15                       1.000000
X_52_25                       1.000000
X_53_24                       1.000000
X_54_8                        1.000000
X_55_11                       1.000000
X_56_20                       1.000000
X_57_14                       1.000000
X_58_6                        1.000000
X_59_16                       1.000000
X_60_1                        1.000000
X_61_11                       1.000000
X_62_8                        1.000000
X_63_17                       1.000000
X_64_8                        1.000000
X_65_13                       1.000000
X_66_9                        1.000000
X_67_2                        1.000000
X_68_1                        1.000000
X_69_9                        1.000000
X_70_14                       1.000000
X_71_10                       1.000000
X_72_8                        1.000000
X_73_6                        1.000000
X_74_15                       1.000000
X_75_2                        1.000000
X_76_2                        1.000000
X_77_5                        1.000000
X_78_29                       1.000000
X_79_1                        1.000000
X_80_30                       1.000000
X_81_3                        1.000000
X_82_4                        1.000000
X_83_12                       1.000000
X_84_5                        1.000000
X_85_15                       1.000000
X_86_7                        1.000000
X_87_6                        1.000000
X_88_19                       1.000000
X_89_24                       1.000000
X_90_15                       1.000000
X_91_27                       1.000000
X_92_21                       1.000000
X_93_14                       1.000000
X_94_21                       1.000000
X_95_26                       1.000000
X_96_22                       1.000000
X_97_20                       1.000000
X_98_18                       1.000000
X_99_17                       1.000000
X_100_29                      1.000000
X_101_6                       1.000000
X_102_6                       1.000000
X_103_11                      1.000000
X_104_29                      1.000000
X_105_8                       1.000000
X_106_30                      1.000000
X_107_7                       1.000000
X_108_14                      1.000000
X_109_22                      1.000000
X_110_6                       1.000000
X_111_20                      1.000000
X_112_27                      1.000000
X_113_2                       1.000000
X_114_13                      1.000000
X_115_21                      1.000000
X_116_18                      1.000000
X_117_2                       1.000000
X_118_20                      1.000000
X_119_30                      1.000000
X_120_27                      1.000000
X_121_7                       1.000000
X_122_25                      1.000000
X_123_2                       1.000000
X_124_27                      1.000000
X_125_11                      1.000000
X_126_8                       1.000000
X_127_5                       1.000000
X_128_4                       1.000000
X_129_23                      1.000000
X_130_7                       1.000000
X_131_21                      1.000000
X_132_19                      1.000000
X_133_27                      1.000000
X_134_12                      1.000000
X_135_19                      1.000000
X_136_27                      1.000000
X_137_5                       1.000000
X_138_3                       1.000000
X_139_22                      1.000000
X_140_16                      1.000000
X_141_13                      1.000000
X_142_11                      1.000000
X_143_28                      1.000000
X_144_22                      1.000000
X_145_24                      1.000000
X_146_11                      1.000000
X_147_13                      1.000000
X_148_24                      1.000000
X_149_12                      1.000000
X_150_7                       1.000000
X_151_20                      1.000000
X_152_27                      1.000000
X_153_26                      1.000000
X_154_16                      1.000000
X_155_18                      1.000000
X_156_12                      1.000000
X_157_27                      1.000000
X_158_25                      1.000000
X_159_5                       1.000000
X_160_11                      1.000000
X_161_8                       1.000000
X_162_18                      1.000000
X_163_3                       1.000000
X_164_1                       1.000000
X_165_30                      1.000000
X_166_22                      1.000000
X_167_23                      1.000000
X_168_29                      1.000000
X_169_12                      1.000000
X_170_1                       1.000000
X_171_21                      1.000000
X_172_7                       1.000000
X_173_28                      1.000000
X_174_20                      1.000000
X_175_20                      1.000000
X_176_13                      1.000000
X_177_13                      1.000000
X_178_27                      1.000000
X_179_28                      1.000000
X_180_23                      1.000000
X_181_7                       1.000000
X_182_17                      1.000000
X_183_24                      1.000000
X_184_19                      1.000000
X_185_10                      1.000000
X_186_28                      1.000000
X_187_4                       1.000000
X_188_19                      1.000000
X_189_27                      1.000000
X_190_21                      1.000000
X_191_30                      1.000000
X_192_11                      1.000000
X_193_17                      1.000000
X_194_29                      1.000000
X_195_29                      1.000000
X_196_8                       1.000000
X_197_6                       1.000000
X_198_2                       1.000000
X_199_22                      1.000000
X_200_29                      1.000000
X_201_15                      1.000000
X_202_25                      1.000000
X_203_8                       1.000000
X_204_13                      1.000000
X_205_22                      1.000000
X_206_15                      1.000000
X_207_23                      1.000000
X_208_4                       1.000000
X_209_13                      1.000000
X_210_5                       1.000000
X_211_15                      1.000000
X_212_4                       1.000000
X_213_8                       1.000000
X_214_16                      1.000000
X_215_18                      1.000000
X_216_19                      1.000000
X_217_26                      1.000000
X_218_8                       1.000000
X_219_12                      1.000000
X_220_24                      1.000000
X_221_9                       1.000000
X_222_30                      1.000000
X_223_17                      1.000000
X_224_14                      1.000000
X_225_9                       1.000000
X_226_30                      1.000000
X_227_17                      1.000000
X_228_29                      1.000000
X_229_22                      1.000000
X_230_19                      1.000000
X_231_2                       1.000000
X_232_14                      1.000000
X_233_18                      1.000000
X_234_4                       1.000000
X_235_22                      1.000000
X_236_21                      1.000000
X_237_17                      1.000000
X_238_14                      1.000000
X_239_30                      1.000000
X_240_6                       1.000000
X_241_4                       1.000000
X_242_6                       1.000000
X_243_4                       1.000000
X_244_11                      1.000000
X_245_4                       1.000000
X_246_21                      1.000000
X_247_12                      1.000000
X_248_22                      1.000000
X_249_28                      1.000000
X_250_10                      1.000000
X_251_8                       1.000000
X_252_11                      1.000000
X_253_28                      1.000000
X_254_23                      1.000000
X_255_19                      1.000000
X_256_6                       1.000000
X_257_6                       1.000000
X_258_23                      1.000000
X_259_16                      1.000000
X_260_22                      1.000000
X_261_7                       1.000000
X_262_22                      1.000000
X_263_2                       1.000000
X_264_6                       1.000000
X_265_30                      1.000000
X_266_26                      1.000000
X_267_16                      1.000000
X_268_9                       1.000000
X_269_19                      1.000000
X_270_16                      1.000000
X_271_16                      1.000000
X_272_18                      1.000000
X_273_14                      1.000000
X_274_30                      1.000000
X_275_13                      1.000000
X_276_2                       1.000000
X_277_9                       1.000000
X_278_25                      1.000000
X_279_4                       1.000000
X_280_13                      1.000000
X_281_25                      1.000000
X_282_8                       1.000000
X_283_18                      1.000000
X_284_21                      1.000000
X_285_5                       1.000000
X_286_27                      1.000000
X_287_12                      1.000000
X_288_16                      1.000000
X_289_9                       1.000000
X_290_23                      1.000000
X_291_4                       1.000000
X_292_25                      1.000000
X_293_23                      1.000000
X_294_13                      1.000000
X_295_1                       1.000000
X_296_3                       1.000000
X_297_14                      1.000000
X_298_20                      1.000000
X_299_19                      1.000000
X_300_2                       1.000000
X_301_28                      1.000000
X_302_12                      1.000000
X_303_8                       1.000000
X_304_7                       1.000000
X_305_21                      1.000000
X_306_19                      1.000000
X_307_19                      1.000000
X_308_13                      1.000000
X_309_11                      1.000000
X_310_10                      1.000000
X_311_27                      1.000000
X_312_15                      1.000000
X_313_21                      1.000000
X_314_18                      1.000000
X_315_10                      1.000000
X_316_1                       1.000000
X_317_9                       1.000000
X_318_26                      1.000000
X_319_30                      1.000000
X_320_28                      1.000000
X_321_15                      1.000000
X_322_4                       1.000000
X_323_15                      1.000000
X_324_24                      1.000000
X_325_29                      1.000000
X_326_28                      1.000000
X_327_5                       1.000000
X_328_1                       1.000000
X_329_26                      1.000000
X_330_10                      1.000000
X_331_2                       1.000000
X_332_6                       1.000000
X_333_14                      1.000000
X_334_24                      1.000000
X_335_18                      1.000000
X_336_21                      1.000000
X_337_10                      1.000000
X_338_23                      1.000000
X_339_30                      1.000000
X_340_26                      1.000000
X_341_11                      1.000000
X_342_22                      1.000000
X_343_17                      1.000000
X_344_17                      1.000000
X_345_30                      1.000000
X_346_29                      1.000000
X_347_2                       1.000000
X_348_27                      1.000000
X_349_15                      1.000000
X_350_11                      1.000000
X_351_27                      1.000000
X_352_23                      1.000000
X_353_23                      1.000000
X_354_17                      1.000000
X_355_10                      1.000000
X_356_4                       1.000000
X_357_8                       1.000000
X_358_15                      1.000000
X_359_1                       1.000000
X_360_3                       1.000000
X_361_18                      1.000000
X_362_8                       1.000000
X_363_13                      1.000000
X_364_16                      1.000000
X_365_9                       1.000000
X_366_24                      1.000000
X_367_24                      1.000000
X_368_9                       1.000000
X_369_27                      1.000000
X_370_1                       1.000000
X_371_25                      1.000000
X_372_23                      1.000000
X_373_6                       1.000000
X_374_25                      1.000000
X_375_4                       1.000000
X_376_29                      1.000000
X_377_5                       1.000000
X_378_18                      1.000000
X_379_19                      1.000000
X_380_21                      1.000000
X_381_10                      1.000000
X_382_16                      1.000000
X_383_7                       1.000000
X_384_9                       1.000000
X_385_10                      1.000000
X_386_9                       1.000000
X_387_14                      1.000000
X_388_24                      1.000000
X_389_7                       1.000000
X_390_22                      1.000000
X_391_17                      1.000000
X_392_23                      1.000000
X_393_17                      1.000000
X_394_24                      1.000000
X_395_7                       1.000000
X_396_5                       1.000000
X_397_18                      1.000000
X_398_21                      1.000000
X_399_27                      1.000000
X_400_26                      1.000000
X_401_5                       1.000000
X_402_7                       1.000000
X_403_5                       1.000000
X_404_13                      1.000000
X_405_9                       1.000000
X_406_24                      1.000000
X_407_14                      1.000000
X_408_24                      1.000000
X_409_25                      1.000000
X_410_20                      1.000000
X_411_7                       1.000000
X_412_21                      1.000000
X_413_28                      1.000000
X_414_25                      1.000000
X_415_3                       1.000000
X_416_6                       1.000000
X_417_3                       1.000000
X_418_16                      1.000000
X_419_5                       1.000000
X_420_15                      1.000000
X_421_13                      1.000000
X_422_3                       1.000000
X_423_12                      1.000000
X_424_8                       1.000000
X_425_10                      1.000000
X_426_3                       1.000000
X_427_12                      1.000000
X_428_2                       1.000000
X_429_18                      1.000000
X_430_23                      1.000000
X_431_19                      1.000000
X_432_9                       1.000000
X_433_2                       1.000000
X_434_26                      1.000000
X_435_20                      1.000000
X_436_25                      1.000000
X_437_25                      1.000000
X_438_28                      1.000000
X_439_28                      1.000000
X_440_5                       1.000000
X_441_26                      1.000000
X_442_9                       1.000000
X_443_30                      1.000000
X_444_7                       1.000000
X_445_11                      1.000000
X_446_26                      1.000000
X_447_11                      1.000000
X_448_14                      1.000000
X_449_1                       1.000000
X_450_12                      1.000000
X_451_2                       1.000000
X_452_16                      1.000000
X_453_1                       1.000000
X_454_26                      1.000000
X_455_19                      1.000000
X_456_26                      1.000000
X_457_12                      1.000000
X_458_1                       1.000000
X_459_10                      1.000000
X_460_24                      1.000000
X_461_22                      1.000000
X_462_17                      1.000000
X_463_20                      1.000000
X_464_14                      1.000000
X_465_6                       1.000000
X_466_11                      1.000000
X_467_28                      1.000000
X_468_17                      1.000000
X_469_3                       1.000000
X_470_3                       1.000000
X_471_10                      1.000000
X_472_20                      1.000000
X_473_13                      1.000000
X_474_17                      1.000000
X_475_30                      1.000000
X_476_17                      1.000000
X_477_16                      1.000000
X_478_3                       1.000000
X_479_2                       1.000000
X_480_18                      1.000000
X_481_11                      1.000000
X_482_29                      1.000000
X_483_23                      1.000000
X_484_29                      1.000000
X_485_14                      1.000000
X_486_10                      1.000000
X_487_19                      1.000000
X_488_24                      1.000000
X_489_30                      1.000000
X_490_25                      1.000000
X_491_29                      1.000000
X_492_14                      1.000000
X_493_4                       1.000000
X_494_26                      1.000000
X_495_15                      1.000000
X_496_19                      1.000000
X_497_14                      1.000000
X_498_4                       1.000000
X_499_27                      1.000000
X_500_15                      1.000000
All other variables in the range 1-15001 are 0.
